$molecule
   {{ charge }} {{ multiplicity }}
{% for coordinate_line in coordinates -%}
{{ coordinate_line }}
{% endfor -%}
$end

$rem
   MEM_TOTAL            {{ mem_total }}
   MEM_STATIC           {{ mem_static }}
   JOBTYPE              {{ job_type }}
   EXCHANGE             {{ exchange }}
   BASIS                {{ basis_set }}
   SCF_ALGORITHM        {{ scf_algorithm }}
   MAX_SCF_CYCLES       {{ max_scf_cycles }}
   CIS_N_ROOTS          {{ cis_n_roots }}
   CIS_SINGLETS         true
   CIS_TRIPLETS         true
   STS_MOM              true
   CALC_SOC             true
   IQMOL_FCHK           {{ iqmol_fchk }}
   CIS_AMPL_ANAL        {{ cis_ampl_anal }}
$end